100 8
212 869
553 356
838 520
788 321
510 431
127 577
392 575
460 439
376 425
455 118
652 421
497 141
336 892
783 394
469 814
754 590
880 681
799 647
264 541
530 432
486 196
407 527
821 396
464 437
146 931
630 562
157 584
765 576
147 860
213 483
27 459
194 539
594 516
437 918
222 525
517 539
257 464
515 173
121 408
87 560
208 637
156 562
262 804
504 721
575 267
549 269
213 627
561 584
619 484
673 297
582 141
302 889
736 570
201 833
588 570
637 229
456 450
392 919
526 269
415 685
420 325
154 884
448 289
809 350
326 583
343 870
141 593
400 578
573 727
500 794
368 531
496 531
477 589
467 552
504 787
545 256
498 570
20 544
512 689
475 610
133 670
707 303
764 282
583 663
671 274
482 574
514 169
522 761
241 589
442 760
348 502
393 488
661 409
709 223
515 629
516 311
474 643
747 656
223 846
772 253
